NAME: rand_1/map4_180
TYPE: TSP
COMMENT: autogenerated using a wonderful map creator
DIMENSION: 210
EDGE_WEIGHT_TYPE: EUC_2D
NODE_COORD_SECTION
1 27.0 125.0
2 127.0 68.0
3 2.0 33.0
4 86.0 2.0
5 95.0 1.0
6 88.0 5.0
7 30.0 125.0
8 124.0 77.0
9 127.0 83.0
10 71.0 1.0
11 74.0 8.0
12 85.0 1.0
13 87.0 18.0
14 67.0 6.0
15 36.0 121.0
16 67.0 1.0
17 83.0 22.0
18 4.0 37.0
19 127.0 73.0
20 69.0 7.0
21 41.0 127.0
22 93.0 7.0
23 3.0 28.0
24 87.0 19.0
25 79.0 1.0
26 7.0 31.0
27 37.0 124.0
28 92.0 5.0
29 42.0 123.0
30 9.0 30.0
31 94.0 9.0
32 26.0 127.0
33 80.0 10.0
34 123.0 85.0
35 76.0 11.0
36 5.0 38.0
37 86.0 10.0
38 84.0 18.0
39 94.0 10.0
40 97.0 3.0
41 75.0 10.0
42 39.0 127.0
43 123.0 83.0
44 10.0 35.0
45 92.0 1.0
46 9.0 40.0
47 1.0 42.0
48 73.0 10.0
49 80.0 15.0
50 96.0 1.0
51 72.0 9.0
52 127.0 86.0
53 28.0 127.0
54 121.0 68.0
55 5.0 27.0
56 34.0 126.0
57 68.0 7.0
58 8.0 37.0
59 80.0 8.0
60 75.0 14.0
61 38.0 23.0
62 106.0 75.0
63 16.0 20.0
64 52.0 104.0
65 99.0 36.0
66 118.0 49.0
67 79.0 97.0
68 98.0 55.0
69 125.0 18.0
70 28.0 12.0
71 54.0 95.0
72 109.0 95.0
73 46.0 2.0
74 66.0 124.0
75 71.0 120.0
76 123.0 2.0
77 37.0 42.0
78 12.0 107.0
79 59.0 103.0
80 97.0 65.0
81 77.0 62.0
82 79.0 81.0
83 59.0 48.0
84 124.0 49.0
85 126.0 55.0
86 90.0 108.0
87 10.0 63.0
88 5.0 21.0
89 48.0 56.0
90 93.0 88.0
91 97.0 49.0
92 38.0 64.0
93 87.0 112.0
94 18.0 3.0
95 7.0 3.0
96 86.0 122.0
97 73.0 67.0
98 126.0 57.0
99 56.0 5.0
100 24.0 37.0
101 2.0 98.0
102 76.0 47.0
103 51.0 57.0
104 14.0 17.0
105 122.0 126.0
106 115.0 2.0
107 29.0 63.0
108 10.0 22.0
109 72.0 70.0
110 18.0 69.0
111 110.0 118.0
112 105.0 49.0
113 18.0 78.0
114 91.0 114.0
115 65.0 40.0
116 16.0 35.0
117 8.0 61.0
118 10.0 58.0
119 14.0 74.0
120 122.0 110.0
121 57.0 127.0
122 14.0 101.0
123 118.0 21.0
124 7.0 7.0
125 18.0 126.0
126 102.0 107.0
127 63.0 79.0
128 66.0 41.0
129 34.0 73.0
130 56.0 18.0
131 82.0 101.0
132 35.0 117.0
133 84.0 113.0
134 87.0 54.0
135 64.0 116.0
136 80.0 112.0
137 107.0 41.0
138 22.0 119.0
139 90.0 98.0
140 93.0 124.0
141 111.0 29.0
142 69.0 87.0
143 87.0 38.0
144 23.0 99.0
145 35.0 64.0
146 75.0 82.0
147 105.0 83.0
148 15.0 6.0
149 78.0 108.0
150 4.0 104.0
151 78.0 117.0
152 122.0 25.0
153 60.0 50.0
154 56.0 13.0
155 29.0 81.0
156 3.0 7.0
157 77.0 75.0
158 15.0 91.0
159 69.0 71.0
160 55.0 26.0
161 105.0 12.0
162 14.0 89.0
163 108.0 17.0
164 36.0 49.0
165 5.0 107.0
166 74.0 42.0
167 23.0 3.0
168 113.0 34.0
169 13.0 105.0
170 58.0 18.0
171 52.0 75.0
172 4.0 90.0
173 105.0 23.0
174 34.0 45.0
175 46.0 19.0
176 65.0 87.0
177 102.0 51.0
178 105.0 105.0
179 40.0 76.0
180 104.0 24.0
181 103.0 89.0
182 86.0 73.0
183 89.0 69.0
184 66.0 49.0
185 78.0 69.0
186 4.0 10.0
187 23.0 87.0
188 95.0 39.0
189 125.0 19.0
190 115.0 51.0
191 110.0 85.0
192 100.0 29.0
193 34.0 93.0
194 71.0 57.0
195 50.0 89.0
196 9.0 18.0
197 30.0 19.0
198 36.0 99.0
199 37.0 98.0
200 20.0 112.0
201 19.0 92.0
202 120.0 4.0
203 75.0 109.0
204 53.0 81.0
205 24.0 45.0
206 36.0 74.0
207 67.0 89.0
208 4.0 85.0
209 116.0 27.0
210 79.0 127.0
211 99.0 75.0
212 84.0 62.0
213 86.0 59.0
214 75.0 93.0
215 120.0 125.0
216 92.0 54.0
217 14.0 116.0
218 26.0 81.0
219 13.0 29.0
220 60.0 58.0
221 53.0 74.0
222 44.0 105.0
223 104.0 37.0
224 89.0 82.0
225 47.0 21.0
226 13.0 120.0
227 122.0 54.0
228 9.0 68.0
229 62.0 58.0
230 26.0 10.0
231 123.0 25.0
232 57.0 89.0
233 59.0 53.0
234 116.0 59.0
235 125.0 7.0
236 101.0 49.0
237 65.0 123.0
238 40.0 57.0
239 40.0 2.0
240 15.0 76.0
START_DEPOT_SECTION
1
2
3
4
5
6
7
8
9
10
11
12
13
14
15
16
17
18
19
20
21
22
23
24
25
26
27
28
29
30
-1
END_DEPOT_SECTION
31
32
33
34
35
36
37
38
39
40
41
42
43
44
45
46
47
48
49
50
51
52
53
54
55
56
57
58
59
60
-1
EOF
